% Logging successfully configured
%%%mzn-stat: initTime=0.004790637
%%%mzn-stat: objective=874
%%%mzn-stat: nodes=2871
%%%mzn-stat: restarts=0
%%%mzn-stat: peakDepth=165
%%%mzn-stat: solveTime=1.5076325160000001
%%%mzn-stat: variables=445
%%%mzn-stat: propagators=275
%%%mzn-stat: failures=2382
%%%mzn-stat: propagations=88722
%%%mzn-stat: nogoods=2382
%%%mzn-stat: numAtomicConstraintsPropagated=0
%%%mzn-stat: circuitNumber1PropagationsTotal=13540
%%%mzn-stat: circuitNumber1CircuitConflicts=1044
%%%mzn-stat: circuitNumber1AlldiffConflicts=11
%%%mzn-stat: circuitNumber1TotalFixedEdgesAtConflict=25676
%%%mzn-stat: circuitNumber1NumberOfConflicts=1055
%%%mzn-stat: circuitNumber1GacPrunings=48451
%%%mzn-stat: circuitNumber1PropagationsThatGacPruned=8097
%%%mzn-stat: circuitNumber1TotalPruningHallSetSize=632105
%%%mzn-stat: circuitNumber1NumberOfPruningExplanations=48451
%%%mzn-stat: circuitNumber1MaxPruningHallSetSize=46
%%%mzn-stat: circuitNumber1TotalSccSizeAtPruning=192326
%%%mzn-stat: circuitNumber1NumberOfSccPruningCalls=8097
%%%mzn-stat: circuitNumber1TotalVarsInvolvedInPruning=37337
%%%mzn-stat: circuitNumber1MaxValuesPrunedFromSingleVar=4
%%%mzn-stat: circuitNumber1HallCircuitChecks=33444
%%%mzn-stat: circuitNumber1HallCircuitPrunings=749
%%%mzn-stat: circuitNumber1CircuitPreventPrunings=6677
%%%mzn-stat: AverageConflictSize=5.961796809403863
%%%mzn-stat: NumUnitNogoodsLearned=0
%%%mzn-stat: AverageLearnedNogoodLength=19.855583543240975
%%%mzn-stat: AverageBacktrackAmount=0
%%%mzn-stat: AverageLbd=6.618807724601176
%%%mzn-stat: 2AutonomousSearchNumBackupCalled=150
%%%mzn-stat: 2AutonomousSearchNumPredicatesRemoved=0
%%%mzn-stat: 2AutonomousSearchNumCalls=151
%%%mzn-stat: 2AutonomousSearchNumPredicatesAdded=2752
%%%mzn-stat: 2AutonomousSearchAverageSizeOfHeap=18.225165562913908
%%%mzn-stat: 2AutonomousSearchNumAssignedPredicatesEncountered=2752
%%%mzn-stat-end
maxleg = 874;
succ = array1d(1..50,[18, 12, 45, 22, 8, 26, 20, 50, 29, 14, 2, 27, 5, 21, 32, 46, 49, 11, 31, 30, 33, 48, 34, 9, 19, 39, 23, 17, 38, 13, 10, 3, 16, 44, 42, 47, 24, 15, 37, 43, 6, 25, 41, 35, 28, 36, 7, 1, 4, 40]);
% time elapsed: 2.62 s
----------
%%%mzn-stat: initTime=0.004790637
%%%mzn-stat: objective=771
%%%mzn-stat: nodes=3030
%%%mzn-stat: restarts=0
%%%mzn-stat: peakDepth=165
%%%mzn-stat: solveTime=1.511732094
%%%mzn-stat: variables=445
%%%mzn-stat: propagators=275
%%%mzn-stat: failures=2382
%%%mzn-stat: propagations=89246
%%%mzn-stat: nogoods=2382
%%%mzn-stat: numAtomicConstraintsPropagated=0
%%%mzn-stat: circuitNumber1PropagationsTotal=13579
%%%mzn-stat: circuitNumber1CircuitConflicts=1044
%%%mzn-stat: circuitNumber1AlldiffConflicts=11
%%%mzn-stat: circuitNumber1TotalFixedEdgesAtConflict=25676
%%%mzn-stat: circuitNumber1NumberOfConflicts=1055
%%%mzn-stat: circuitNumber1GacPrunings=48553
%%%mzn-stat: circuitNumber1PropagationsThatGacPruned=8117
%%%mzn-stat: circuitNumber1TotalPruningHallSetSize=633054
%%%mzn-stat: circuitNumber1NumberOfPruningExplanations=48553
%%%mzn-stat: circuitNumber1MaxPruningHallSetSize=46
%%%mzn-stat: circuitNumber1TotalSccSizeAtPruning=192674
%%%mzn-stat: circuitNumber1NumberOfSccPruningCalls=8117
%%%mzn-stat: circuitNumber1TotalVarsInvolvedInPruning=37412
%%%mzn-stat: circuitNumber1MaxValuesPrunedFromSingleVar=4
%%%mzn-stat: circuitNumber1HallCircuitChecks=33557
%%%mzn-stat: circuitNumber1HallCircuitPrunings=749
%%%mzn-stat: circuitNumber1CircuitPreventPrunings=6693
%%%mzn-stat: AverageConflictSize=5.961796809403863
%%%mzn-stat: NumUnitNogoodsLearned=0
%%%mzn-stat: AverageLearnedNogoodLength=19.855583543240975
%%%mzn-stat: AverageBacktrackAmount=0
%%%mzn-stat: AverageLbd=6.618807724601176
%%%mzn-stat: 2AutonomousSearchNumBackupCalled=296
%%%mzn-stat: 2AutonomousSearchNumPredicatesRemoved=0
%%%mzn-stat: 2AutonomousSearchNumCalls=298
%%%mzn-stat: 2AutonomousSearchNumPredicatesAdded=2752
%%%mzn-stat: 2AutonomousSearchAverageSizeOfHeap=18.469798657718123
%%%mzn-stat: 2AutonomousSearchNumAssignedPredicatesEncountered=5504
%%%mzn-stat-end
maxleg = 771;
succ = array1d(1..50,[18, 12, 45, 22, 8, 26, 20, 50, 29, 14, 2, 27, 5, 21, 32, 46, 49, 11, 31, 30, 33, 48, 34, 9, 19, 43, 23, 17, 38, 13, 10, 3, 40, 44, 42, 47, 24, 15, 41, 16, 6, 25, 37, 35, 28, 36, 7, 1, 4, 39]);
% time elapsed: 2.62 s
----------
==========
% time elapsed: 9.93 s
%%%mzn-stat: initTime=0.004790637
%%%mzn-stat: objective=771
%%%mzn-stat: nodes=19395
%%%mzn-stat: restarts=0
%%%mzn-stat: peakDepth=165
%%%mzn-stat: solveTime=8.839514172
%%%mzn-stat: variables=445
%%%mzn-stat: propagators=275
%%%mzn-stat: failures=14158
%%%mzn-stat: propagations=495819
%%%mzn-stat: nogoods=14158
%%%mzn-stat: numAtomicConstraintsPropagated=0
%%%mzn-stat: circuitNumber1PropagationsTotal=80551
%%%mzn-stat: circuitNumber1CircuitConflicts=9047
%%%mzn-stat: circuitNumber1AlldiffConflicts=79
%%%mzn-stat: circuitNumber1TotalFixedEdgesAtConflict=383576
%%%mzn-stat: circuitNumber1NumberOfConflicts=9126
%%%mzn-stat: circuitNumber1GacPrunings=155145
%%%mzn-stat: circuitNumber1PropagationsThatGacPruned=46241
%%%mzn-stat: circuitNumber1TotalPruningHallSetSize=978870
%%%mzn-stat: circuitNumber1NumberOfPruningExplanations=155145
%%%mzn-stat: circuitNumber1MaxPruningHallSetSize=47
%%%mzn-stat: circuitNumber1TotalSccSizeAtPruning=366678
%%%mzn-stat: circuitNumber1NumberOfSccPruningCalls=46241
%%%mzn-stat: circuitNumber1TotalVarsInvolvedInPruning=129977
%%%mzn-stat: circuitNumber1MaxValuesPrunedFromSingleVar=4
%%%mzn-stat: circuitNumber1HallCircuitChecks=239529
%%%mzn-stat: circuitNumber1HallCircuitPrunings=2282
%%%mzn-stat: circuitNumber1CircuitPreventPrunings=34334
%%%mzn-stat: AverageConflictSize=35.142463624805764
%%%mzn-stat: NumUnitNogoodsLearned=1
%%%mzn-stat: AverageLearnedNogoodLength=29.555021895747988
%%%mzn-stat: AverageBacktrackAmount=0
%%%mzn-stat: AverageLbd=7.843410086170363
%%%mzn-stat: 2AutonomousSearchNumBackupCalled=296
%%%mzn-stat: 2AutonomousSearchNumPredicatesRemoved=0
%%%mzn-stat: 2AutonomousSearchNumCalls=298
%%%mzn-stat: 2AutonomousSearchNumPredicatesAdded=5590
%%%mzn-stat: 2AutonomousSearchAverageSizeOfHeap=18.469798657718123
%%%mzn-stat: 2AutonomousSearchNumAssignedPredicatesEncountered=5504
%%%mzn-stat-end
